# 61589
param k := 6;
param n := 60;
param s := 1;
set E :=  (0,5) (1,23) (2,51) (3,7) (3,37) (4,35) (5,23) (6,51) (7,27) (8,13) (8,32) (8,33) (8,40) (8,43) (8,51) (9,15) (9,28) (9,36) (9,57) (10,31) (11,30) (11,46) (12,32) (12,55) (13,22) (13,31) (14,30) (14,42) (15,48) (16,19) (16,53) (17,31) (17,44) (18,25) (18,42) (20,21) (21,37) (21,49) (23,30) (23,38) (24,57) (26,42) (27,39) (27,51) (28,52) (29,34) (29,36) (31,45) (35,44) (35,54) (36,39) (36,42) (38,45) (41,46) (44,59) (47,48) (49,58) (50,52) (50,58) (51,56) (53,58);